835
100
1
21
30
13
12
16
28
19
5
16
16
21
12
23
15
10
27
3
30
22
13
21
17
29
6
30
4
24
18
9
5
15
18
30
13
1
10
27
7
26
26
15
2
3
30
30
16
23
11
3
4
19
19
3
2
20
20
23
24
14
22
3
25
5
13
19
16
18
30
19
22
21
15
8
17
28
24
18
25
20
14
21
26
24
13
29
23
4
18
15
15
9
17
12
16
5
1
21
17
6
29
23
18
11
2
18
2
27
7
1
19
28
25
19
2
26
13
26
21
29
15
19
6
17
3
10
8
30
28
25
5
18
25
22
7
16
13
29
16
4
23
20
27
23
20
6
12
12
8
14
2
11
5
30
29
14
22
8
12
28
8
13
9
6
16
17
14
19
13
12
20
14
8
29
20
25
30
27
17
3
9
3
2
8
10
18
26
29
2
20
18
29
14
9
25
6
16
27
30
23
